c graph colorability of graph:
c .
c
c Generated with `cnfgen`
c (C) 2012-2019 Massimo Lauria <massimo.lauria@uniroma1.it>
c https://massimolauria.net/cnfgen
c
c COMMAND LINE: cnfgen --seed 1 -o ./kcolor/kcolor.grid7.s1.k3.cnf kcolor --grid 7 7 --savegraph ./kcolor/kcolor.grid7.s1.graph --graphformat dot 3
c
p cnf 147 448
1 2 3 0
-1 -2 0
-1 -3 0
-2 -3 0
4 5 6 0
-4 -5 0
-4 -6 0
-5 -6 0
7 8 9 0
-7 -8 0
-7 -9 0
-8 -9 0
10 11 12 0
-10 -11 0
-10 -12 0
-11 -12 0
13 14 15 0
-13 -14 0
-13 -15 0
-14 -15 0
16 17 18 0
-16 -17 0
-16 -18 0
-17 -18 0
19 20 21 0
-19 -20 0
-19 -21 0
-20 -21 0
22 23 24 0
-22 -23 0
-22 -24 0
-23 -24 0
25 26 27 0
-25 -26 0
-25 -27 0
-26 -27 0
28 29 30 0
-28 -29 0
-28 -30 0
-29 -30 0
31 32 33 0
-31 -32 0
-31 -33 0
-32 -33 0
34 35 36 0
-34 -35 0
-34 -36 0
-35 -36 0
37 38 39 0
-37 -38 0
-37 -39 0
-38 -39 0
40 41 42 0
-40 -41 0
-40 -42 0
-41 -42 0
43 44 45 0
-43 -44 0
-43 -45 0
-44 -45 0
46 47 48 0
-46 -47 0
-46 -48 0
-47 -48 0
49 50 51 0
-49 -50 0
-49 -51 0
-50 -51 0
52 53 54 0
-52 -53 0
-52 -54 0
-53 -54 0
55 56 57 0
-55 -56 0
-55 -57 0
-56 -57 0
58 59 60 0
-58 -59 0
-58 -60 0
-59 -60 0
61 62 63 0
-61 -62 0
-61 -63 0
-62 -63 0
64 65 66 0
-64 -65 0
-64 -66 0
-65 -66 0
67 68 69 0
-67 -68 0
-67 -69 0
-68 -69 0
70 71 72 0
-70 -71 0
-70 -72 0
-71 -72 0
73 74 75 0
-73 -74 0
-73 -75 0
-74 -75 0
76 77 78 0
-76 -77 0
-76 -78 0
-77 -78 0
79 80 81 0
-79 -80 0
-79 -81 0
-80 -81 0
82 83 84 0
-82 -83 0
-82 -84 0
-83 -84 0
85 86 87 0
-85 -86 0
-85 -87 0
-86 -87 0
88 89 90 0
-88 -89 0
-88 -90 0
-89 -90 0
91 92 93 0
-91 -92 0
-91 -93 0
-92 -93 0
94 95 96 0
-94 -95 0
-94 -96 0
-95 -96 0
97 98 99 0
-97 -98 0
-97 -99 0
-98 -99 0
100 101 102 0
-100 -101 0
-100 -102 0
-101 -102 0
103 104 105 0
-103 -104 0
-103 -105 0
-104 -105 0
106 107 108 0
-106 -107 0
-106 -108 0
-107 -108 0
109 110 111 0
-109 -110 0
-109 -111 0
-110 -111 0
112 113 114 0
-112 -113 0
-112 -114 0
-113 -114 0
115 116 117 0
-115 -116 0
-115 -117 0
-116 -117 0
118 119 120 0
-118 -119 0
-118 -120 0
-119 -120 0
121 122 123 0
-121 -122 0
-121 -123 0
-122 -123 0
124 125 126 0
-124 -125 0
-124 -126 0
-125 -126 0
127 128 129 0
-127 -128 0
-127 -129 0
-128 -129 0
130 131 132 0
-130 -131 0
-130 -132 0
-131 -132 0
133 134 135 0
-133 -134 0
-133 -135 0
-134 -135 0
136 137 138 0
-136 -137 0
-136 -138 0
-137 -138 0
139 140 141 0
-139 -140 0
-139 -141 0
-140 -141 0
142 143 144 0
-142 -143 0
-142 -144 0
-143 -144 0
145 146 147 0
-145 -146 0
-145 -147 0
-146 -147 0
-1 -4 0
-2 -5 0
-3 -6 0
-1 -22 0
-2 -23 0
-3 -24 0
-4 -7 0
-5 -8 0
-6 -9 0
-4 -25 0
-5 -26 0
-6 -27 0
-7 -10 0
-8 -11 0
-9 -12 0
-7 -28 0
-8 -29 0
-9 -30 0
-10 -13 0
-11 -14 0
-12 -15 0
-10 -31 0
-11 -32 0
-12 -33 0
-13 -16 0
-14 -17 0
-15 -18 0
-13 -34 0
-14 -35 0
-15 -36 0
-16 -19 0
-17 -20 0
-18 -21 0
-16 -37 0
-17 -38 0
-18 -39 0
-19 -40 0
-20 -41 0
-21 -42 0
-22 -25 0
-23 -26 0
-24 -27 0
-22 -43 0
-23 -44 0
-24 -45 0
-25 -28 0
-26 -29 0
-27 -30 0
-25 -46 0
-26 -47 0
-27 -48 0
-28 -31 0
-29 -32 0
-30 -33 0
-28 -49 0
-29 -50 0
-30 -51 0
-31 -34 0
-32 -35 0
-33 -36 0
-31 -52 0
-32 -53 0
-33 -54 0
-34 -37 0
-35 -38 0
-36 -39 0
-34 -55 0
-35 -56 0
-36 -57 0
-37 -40 0
-38 -41 0
-39 -42 0
-37 -58 0
-38 -59 0
-39 -60 0
-40 -61 0
-41 -62 0
-42 -63 0
-43 -46 0
-44 -47 0
-45 -48 0
-43 -64 0
-44 -65 0
-45 -66 0
-46 -49 0
-47 -50 0
-48 -51 0
-46 -67 0
-47 -68 0
-48 -69 0
-49 -52 0
-50 -53 0
-51 -54 0
-49 -70 0
-50 -71 0
-51 -72 0
-52 -55 0
-53 -56 0
-54 -57 0
-52 -73 0
-53 -74 0
-54 -75 0
-55 -58 0
-56 -59 0
-57 -60 0
-55 -76 0
-56 -77 0
-57 -78 0
-58 -61 0
-59 -62 0
-60 -63 0
-58 -79 0
-59 -80 0
-60 -81 0
-61 -82 0
-62 -83 0
-63 -84 0
-64 -67 0
-65 -68 0
-66 -69 0
-64 -85 0
-65 -86 0
-66 -87 0
-67 -70 0
-68 -71 0
-69 -72 0
-67 -88 0
-68 -89 0
-69 -90 0
-70 -73 0
-71 -74 0
-72 -75 0
-70 -91 0
-71 -92 0
-72 -93 0
-73 -76 0
-74 -77 0
-75 -78 0
-73 -94 0
-74 -95 0
-75 -96 0
-76 -79 0
-77 -80 0
-78 -81 0
-76 -97 0
-77 -98 0
-78 -99 0
-79 -82 0
-80 -83 0
-81 -84 0
-79 -100 0
-80 -101 0
-81 -102 0
-82 -103 0
-83 -104 0
-84 -105 0
-85 -88 0
-86 -89 0
-87 -90 0
-85 -106 0
-86 -107 0
-87 -108 0
-88 -91 0
-89 -92 0
-90 -93 0
-88 -109 0
-89 -110 0
-90 -111 0
-91 -94 0
-92 -95 0
-93 -96 0
-91 -112 0
-92 -113 0
-93 -114 0
-94 -97 0
-95 -98 0
-96 -99 0
-94 -115 0
-95 -116 0
-96 -117 0
-97 -100 0
-98 -101 0
-99 -102 0
-97 -118 0
-98 -119 0
-99 -120 0
-100 -103 0
-101 -104 0
-102 -105 0
-100 -121 0
-101 -122 0
-102 -123 0
-103 -124 0
-104 -125 0
-105 -126 0
-106 -109 0
-107 -110 0
-108 -111 0
-106 -127 0
-107 -128 0
-108 -129 0
-109 -112 0
-110 -113 0
-111 -114 0
-109 -130 0
-110 -131 0
-111 -132 0
-112 -115 0
-113 -116 0
-114 -117 0
-112 -133 0
-113 -134 0
-114 -135 0
-115 -118 0
-116 -119 0
-117 -120 0
-115 -136 0
-116 -137 0
-117 -138 0
-118 -121 0
-119 -122 0
-120 -123 0
-118 -139 0
-119 -140 0
-120 -141 0
-121 -124 0
-122 -125 0
-123 -126 0
-121 -142 0
-122 -143 0
-123 -144 0
-124 -145 0
-125 -146 0
-126 -147 0
-127 -130 0
-128 -131 0
-129 -132 0
-130 -133 0
-131 -134 0
-132 -135 0
-133 -136 0
-134 -137 0
-135 -138 0
-136 -139 0
-137 -140 0
-138 -141 0
-139 -142 0
-140 -143 0
-141 -144 0
-142 -145 0
-143 -146 0
-144 -147 0
